certificates/rado_a9_c42_N18.cnf
c Rad2 upper bound instance: x1 + 9*x2 - x3 = 42, interval [1,18]
p cnf 18 72
1 4 5 0
-1 -4 -5 0
1 6 13 0
-1 -6 -13 0
2 5 0
-2 -5 0
2 6 14 0
-2 -6 -14 0
3 5 6 0
-3 -5 -6 0
3 6 15 0
-3 -6 -15 0
4 5 7 0
-4 -5 -7 0
4 6 16 0
-4 -6 -16 0
5 8 0
-5 -8 0
5 6 17 0
-5 -6 -17 0
5 6 9 0
-5 -6 -9 0
6 18 0
-6 -18 0
1 4 7 0
-1 -4 -7 0
5 7 10 0
-5 -7 -10 0
2 4 8 0
-2 -4 -8 0
5 8 11 0
-5 -8 -11 0
3 4 9 0
-3 -4 -9 0
5 9 12 0
-5 -9 -12 0
4 10 0
-4 -10 0
5 10 13 0
-5 -10 -13 0
4 5 11 0
-4 -5 -11 0
5 11 14 0
-5 -11 -14 0
4 6 12 0
-4 -6 -12 0
5 12 15 0
-5 -12 -15 0
4 7 13 0
-4 -7 -13 0
5 13 16 0
-5 -13 -16 0
4 8 14 0
-4 -8 -14 0
5 14 17 0
-5 -14 -17 0
4 9 15 0
-4 -9 -15 0
5 15 18 0
-5 -15 -18 0
1 3 16 0
-1 -3 -16 0
4 10 16 0
-4 -10 -16 0
2 3 17 0
-2 -3 -17 0
4 11 17 0
-4 -11 -17 0
3 18 0
-3 -18 0
4 12 18 0
-4 -12 -18 0
