certificates/rado_a9_c42_N18.drat
-18 0
6 0
3 0
-15 0
-5 0
0
